c Sudoku solution
p cnf 729 0
142 0
174 0
268 0
272 0
295 0
325 0
331 0
312 0
451 0
464 0
478 0
549 0
622 0
639 0
723 0
741 0
161 0
155 0
281 0
787 0
838 0
845 0
857 0
911 0
521 0
128 0
952 0
732 0
562 0
665 0
367 0
197 0
976 0
994 0
754 0
948 0
798 0
344 0
388 0
596 0
186 0
133 0
119 0
259 0
243 0
356 0
684 0
583 0
691 0
677 0
575 0
413 0
435 0
558 0
653 0
618 0
426 0
447 0
646 0
715 0
937 0
929 0
779 0
985 0
766 0
869 0
963 0
824 0
816 0
236 0
227 0
214 0
517 0
534 0
871 0
373 0
399 0
882 0
893 0
489 0
492 0
